<number of tasks>
50

<cycle time>
1000

<order strength>
0.195


<task times>
1 511
2 453
3 612
4 342
5 392
6 380
7 628
8 429
9 570
10 643
11 668
12 418
13 693
14 716
15 500
16 390
17 442
18 572
19 579
20 460
21 516
22 627
23 642
24 571
25 342
26 264
27 532
28 364
29 575
30 586
31 547
32 602
33 350
34 439
35 530
36 643
37 618
38 742
39 632
40 504
41 464
42 539
43 460
44 281
45 721
46 415
47 624
48 525
49 566
50 630

<precedence relations>
1,28
2,9
3,8
4,29
5,6
5,7
6,12
6,13
6,14
6,15
7,10
7,11
8,16
8,22
8,30
10,24
11,17
12,20
12,26
13,41
14,18
14,21
15,19
15,22
15,25
16,23
19,32
20,29
21,27
21,30
21,31
23,28
25,31
27,34
28,32
28,33
28,35
28,36
29,37
29,48
30,38
32,39
32,46
33,41
33,43
35,40
35,44
37,42
37,45
39,49
45,47
45,49
45,50
46,48

<end>
